142
1000
438
439
13
39
38
443
321
13
452
332
140
329
51
380
23
116
261
411
22
249
369
97
364
285
19
227
36
93
244
417
88
196
186
23
204
412
291
113
81
488
1
188
230
315
79
361
178
168
304
137
99
184
147
380
283
107
252
47
130
61
212
126
3
246
44
410
121
360
330
86
145
456
101
439
265
287
472
110
42
3
381
248
154
10
331
229
144
124
439
120
228
455
163
277
268
115
103
34
102
477
362
229
309
52
403
163
258
175
306
246
110
127
293
257
30
186
407
344
212
262
202
99
273
268
165
329
426
199
126
219
136
107
145
69
69
172
265
61
253
17
458
157
